c generated by sgen
p cnf 41 92
-2 -3 -4 0
-1 -3 -4 0
-1 -2 -4 0
-1 -2 -3 0
-6 -7 -8 0
-5 -7 -8 0
-5 -6 -8 0
-5 -6 -7 0
-10 -11 -12 0
-9 -11 -12 0
-9 -10 -12 0
-9 -10 -11 0
-14 -15 -16 0
-13 -15 -16 0
-13 -14 -16 0
-13 -14 -15 0
-18 -19 -20 0
-17 -19 -20 0
-17 -18 -20 0
-17 -18 -19 0
-22 -23 -24 0
-21 -23 -24 0
-21 -22 -24 0
-21 -22 -23 0
-26 -27 -28 0
-25 -27 -28 0
-25 -26 -28 0
-25 -26 -27 0
-30 -31 -32 0
-29 -31 -32 0
-29 -30 -32 0
-29 -30 -31 0
-34 -35 -36 0
-33 -35 -36 0
-33 -34 -36 0
-33 -34 -35 0
-37 -38 -39 0
-37 -38 -40 0
-37 -38 -41 0
-37 -39 -40 0
-37 -39 -41 0
-37 -40 -41 0
-38 -39 -40 0
-38 -39 -41 0
-38 -40 -41 0
-39 -40 -41 0
6 31 25 0
4 31 25 0
4 6 25 0
4 6 31 0
38 20 11 0
30 20 11 0
30 38 11 0
30 38 20 0
19 14 35 0
8 14 35 0
8 19 35 0
8 19 14 0
27 10 15 0
32 10 15 0
32 27 15 0
32 27 10 0
1 29 22 0
33 29 22 0
33 1 22 0
33 1 29 0
41 28 34 0
23 28 34 0
23 41 34 0
23 41 28 0
39 12 7 0
36 12 7 0
36 39 7 0
36 39 12 0
40 5 21 0
16 5 21 0
16 40 21 0
16 40 5 0
9 17 3 0
24 17 3 0
24 9 3 0
24 9 17 0
13 26 18 0
13 26 37 0
13 26 2 0
13 18 37 0
13 18 2 0
13 37 2 0
26 18 37 0
26 18 2 0
26 37 2 0
18 37 2 0
